Route #1: 1 49 37 53 31 39 51 8 30
Route #2: 1 21 14 27 5 63 18
Route #3: 1 62 17 9 28 36 42 40
Route #4: 1 57 41 26 16 50 54 2 46
Route #5: 1 29 58 33 45 48 35 12 52 22
Route #6: 1 44 11 60 20 4 43 6 19
Route #7: 1 32 25 24 61 38 55
Route #8: 1 15 3 10 13 7
Route #9: 1 47 59 23
Route #10: 1 34 56
cost 1603
